<instance format="XCSP3" type="COP">
  <variables>
    <array id="x" size="[60]"> 0 1 </array>
  </variables>
  <constraints>
    <sum>
      <list> x[] </list>
      <coeffs> 10 61 30 35 31 7 22 17 20 1 34 58 56 1 48 43 9 48 8 13 36 46 42 3 40 22 57 19 35 5 33 7 13 45 38 8 37 5 22 62 24 38 11 35 19 46 25 19 34 60 10 10 38 26 48 10 59 19 57 55 </coeffs>
      <condition> (le,250) </condition>
    </sum>
  </constraints>
  <objectives>
    <maximize type="sum">
      <list> x[] </list>
      <coeffs> 61 15 37 100 37 45 91 46 100 29 23 81 69 38 52 64 64 82 80 25 34 63 9 3 89 62 80 60 49 8 38 58 8 8 37 40 24 49 33 40 14 21 64 43 72 56 1 17 32 64 4 11 65 41 60 15 28 17 57 7 </coeffs>
    </maximize>
  </objectives>
</instance>
